decision_x16=[0,2];
decision_x17=[0,2];
decision_x18=[0,2];
decision_x19=[0,2];
decision_x20=[0,2];
decision_x8=[0,2];
decision_x9=[0,2];
decision_x10=[0,2];
decision_x11=[0,2];
decision_x12=[0,2];
decision_x13=[0,2];
decision_x14=[0,2];
decision_x15=[0,2];
decision_x1=[0,2];
decision_x2=[0,2];
decision_x3=[0,2];
decision_x4=[0,2];
decision_x5=[0,2];
decision_x6=[0,2];
decision_x7=[0,2];
random_y1=[0,2];
random_y2=[0,2];
random_y3=[0,2];
random_y4=[0,2];
constraint_x2_x1=[
0,0,5.9|
0,1,3.1|
0,2,4|
1,0,8.4|
1,1,2|
1,2,9|
2,0,8.9|
2,1,0.57|
2,2,5.6|
];
constraint_x3_x2=[
0,0,2.9|
0,1,1.5|
0,2,3.7|
1,0,1.7|
1,1,0.05|
1,2,1.7|
2,0,9.7|
2,1,8.1|
2,2,1.7|
];
constraint_x4_x1=[
0,0,1.9|
0,1,0.98|
0,2,6.5|
1,0,6.7|
1,1,2|
1,2,2.9|
2,0,9.6|
2,1,5.6|
2,2,7.9|
];
constraint_x4_x3=[
0,0,6.5|
0,1,4.4|
0,2,6.1|
1,0,9.7|
1,1,8.5|
1,2,4.2|
2,0,3|
2,1,8.7|
2,2,7.9|
];
constraint_x5_x1=[
0,0,3.1|
0,1,0.43|
0,2,6.7|
1,0,6.7|
1,1,7.4|
1,2,2.3|
2,0,1.5|
2,1,3.1|
2,2,1.2|
];
constraint_x5_x2=[
0,0,5.1|
0,1,9.4|
0,2,6.4|
1,0,3.6|
1,1,4.3|
1,2,4.1|
2,0,4|
2,1,5.7|
2,2,1.5|
];
constraint_x5_x4=[
0,0,2.8|
0,1,3.1|
0,2,3.4|
1,0,3.1|
1,1,3.6|
1,2,4.1|
2,0,5.5|
2,1,0.81|
2,2,5.3|
];
constraint_x6_x1=[
0,0,1.6|
0,1,2.8|
0,2,0.34|
1,0,10|
1,1,0.39|
1,2,8.3|
2,0,3.3|
2,1,9.4|
2,2,7.5|
];
constraint_x6_x2=[
0,0,7.7|
0,1,5.7|
0,2,8|
1,0,9.3|
1,1,2.8|
1,2,1.1|
2,0,4.7|
2,1,3.9|
2,2,8|
];
constraint_x6_x3=[
0,0,7.8|
0,1,6|
0,2,3.1|
1,0,7.9|
1,1,9.5|
1,2,7.6|
2,0,2.4|
2,1,0.17|
2,2,3.8|
];
constraint_x7_x4=[
0,0,9.8|
0,1,7.7|
0,2,8.7|
1,0,0.015|
1,1,9.4|
1,2,4.2|
2,0,6|
2,1,6|
2,2,8.8|
];
constraint_x8_x2=[
0,0,6.2|
0,1,4|
0,2,7.5|
1,0,3.7|
1,1,7|
1,2,7.9|
2,0,6|
2,1,0.88|
2,2,8.6|
];
constraint_x8_x5=[
0,0,8.8|
0,1,0.23|
0,2,0.64|
1,0,2.3|
1,1,5.6|
1,2,1.6|
2,0,5|
2,1,2.4|
2,2,4.5|
];
constraint_x8_x6=[
0,0,9.3|
0,1,0.82|
0,2,9.4|
1,0,2|
1,1,6.1|
1,2,8.8|
2,0,3.8|
2,1,5.8|
2,2,5.2|
];
constraint_x8_x7=[
0,0,0.85|
0,1,8.7|
0,2,9.9|
1,0,5.8|
1,1,0.82|
1,2,3.1|
2,0,2.7|
2,1,3.5|
2,2,1.8|
];
constraint_x9_x3=[
0,0,9.2|
0,1,0.27|
0,2,1.3|
1,0,9.9|
1,1,4.2|
1,2,6.6|
2,0,5.9|
2,1,3.2|
2,2,3.8|
];
constraint_x9_x4=[
0,0,4|
0,1,9.2|
0,2,6.5|
1,0,9|
1,1,6.1|
1,2,5.5|
2,0,8.1|
2,1,4|
2,2,3.4|
];
constraint_x9_x5=[
0,0,5.1|
0,1,0.5|
0,2,7.7|
1,0,2.4|
1,1,2.8|
1,2,3|
2,0,5.3|
2,1,6.3|
2,2,6.1|
];
constraint_x10_x1=[
0,0,3.4|
0,1,2.4|
0,2,0.28|
1,0,3|
1,1,0.29|
1,2,3.4|
2,0,3.6|
2,1,9.4|
2,2,4.2|
];
constraint_x10_x2=[
0,0,2.2|
0,1,4.6|
0,2,5.9|
1,0,8.9|
1,1,5.6|
1,2,4|
2,0,7.4|
2,1,1.8|
2,2,8.6|
];
constraint_x10_x4=[
0,0,4.4|
0,1,4.2|
0,2,3.6|
1,0,9.5|
1,1,3.4|
1,2,6.3|
2,0,2.1|
2,1,8.7|
2,2,9.7|
];
constraint_x10_x5=[
0,0,0.35|
0,1,5.1|
0,2,3|
1,0,8.4|
1,1,8.7|
1,2,8.2|
2,0,9.4|
2,1,4.7|
2,2,8.4|
];
constraint_x10_x6=[
0,0,0.46|
0,1,8.7|
0,2,5.3|
1,0,0.84|
1,1,4.3|
1,2,2.7|
2,0,5.2|
2,1,3.8|
2,2,5.5|
];
constraint_x11_x1=[
0,0,6.5|
0,1,5.2|
0,2,8.6|
1,0,4.6|
1,1,8.2|
1,2,8.6|
2,0,2.6|
2,1,9.6|
2,2,8|
];
constraint_x11_x3=[
0,0,4.9|
0,1,7.2|
0,2,6.6|
1,0,8.9|
1,1,7.8|
1,2,8.2|
2,0,6.6|
2,1,7.4|
2,2,3.5|
];
constraint_x11_x4=[
0,0,4.1|
0,1,4.6|
0,2,6.1|
1,0,9.6|
1,1,2.7|
1,2,6.3|
2,0,0.3|
2,1,4.3|
2,2,9.4|
];
constraint_x11_x8=[
0,0,6.4|
0,1,4.8|
0,2,0.028|
1,0,6.9|
1,1,3.3|
1,2,7.4|
2,0,6.9|
2,1,4.5|
2,2,6.6|
];
constraint_x12_x3=[
0,0,5.2|
0,1,10|
0,2,0.54|
1,0,3.2|
1,1,8|
1,2,7.6|
2,0,0.62|
2,1,1.1|
2,2,0.28|
];
constraint_x12_x4=[
0,0,4.9|
0,1,7|
0,2,5.7|
1,0,7.7|
1,1,0.12|
1,2,3.1|
2,0,8.1|
2,1,4.2|
2,2,7.6|
];
constraint_x12_x10=[
0,0,6.2|
0,1,4.9|
0,2,9.4|
1,0,0.15|
1,1,4.6|
1,2,0.097|
2,0,6|
2,1,3.7|
2,2,6.7|
];
constraint_x13_x4=[
0,0,5.1|
0,1,5.7|
0,2,9.9|
1,0,5.8|
1,1,1.6|
1,2,8.7|
2,0,2.7|
2,1,5.6|
2,2,2.2|
];
constraint_x13_x6=[
0,0,6|
0,1,5.7|
0,2,2.4|
1,0,5.4|
1,1,8.5|
1,2,4.8|
2,0,9.5|
2,1,0.046|
2,2,2.6|
];
constraint_x13_x8=[
0,0,0.11|
0,1,8.7|
0,2,3.4|
1,0,6.1|
1,1,8.2|
1,2,4.8|
2,0,6.7|
2,1,4.1|
2,2,1|
];
constraint_x13_x9=[
0,0,1.4|
0,1,1.7|
0,2,4.5|
1,0,0.15|
1,1,8.9|
1,2,3.2|
2,0,0.16|
2,1,4.4|
2,2,1.7|
];
constraint_x13_x12=[
0,0,5.7|
0,1,9|
0,2,5.4|
1,0,5.5|
1,1,8.5|
1,2,6|
2,0,0.85|
2,1,4|
2,2,7.8|
];
constraint_x14_x1=[
0,0,1.3|
0,1,7.7|
0,2,5.9|
1,0,0.82|
1,1,5.5|
1,2,4.5|
2,0,0.063|
2,1,8.3|
2,2,2.3|
];
constraint_x14_x2=[
0,0,8.7|
0,1,0.81|
0,2,2.7|
1,0,5.4|
1,1,2.5|
1,2,5|
2,0,2|
2,1,5.1|
2,2,0.18|
];
constraint_x14_x3=[
0,0,0.18|
0,1,3|
0,2,2.3|
1,0,0.6|
1,1,0.024|
1,2,2.6|
2,0,4.6|
2,1,1.6|
2,2,9.1|
];
constraint_x14_x9=[
0,0,8.4|
0,1,0.22|
0,2,4.1|
1,0,4.4|
1,1,9.4|
1,2,2.9|
2,0,1|
2,1,6.1|
2,2,7.3|
];
constraint_x14_x12=[
0,0,4.4|
0,1,3|
0,2,8.8|
1,0,7.6|
1,1,2.6|
1,2,4.5|
2,0,7.2|
2,1,3.9|
2,2,3.3|
];
constraint_x15_x1=[
0,0,8.8|
0,1,2.6|
0,2,1|
1,0,8.8|
1,1,1.2|
1,2,0.1|
2,0,2.1|
2,1,5.3|
2,2,5.7|
];
constraint_x15_x3=[
0,0,8.4|
0,1,6.8|
0,2,3.4|
1,0,6.8|
1,1,10|
1,2,1.5|
2,0,9.4|
2,1,4.6|
2,2,6.8|
];
constraint_x15_x5=[
0,0,8.1|
0,1,6.3|
0,2,0.08|
1,0,3.6|
1,1,2.4|
1,2,1.2|
2,0,4.8|
2,1,2.6|
2,2,4.6|
];
constraint_x15_x6=[
0,0,5.1|
0,1,2.8|
0,2,4.5|
1,0,5.4|
1,1,3.6|
1,2,6.6|
2,0,0.031|
2,1,8.1|
2,2,0.82|
];
constraint_x15_x7=[
0,0,0.76|
0,1,8.1|
0,2,1.1|
1,0,2.2|
1,1,7.7|
1,2,4.7|
2,0,6.5|
2,1,4.5|
2,2,0.42|
];
constraint_x15_x9=[
0,0,7.8|
0,1,8.3|
0,2,2.1|
1,0,1.2|
1,1,8.7|
1,2,4.2|
2,0,3|
2,1,8.8|
2,2,6.2|
];
constraint_x15_x10=[
0,0,7|
0,1,0.1|
0,2,2.1|
1,0,5.4|
1,1,5.3|
1,2,6|
2,0,1.5|
2,1,5.2|
2,2,9.8|
];
constraint_x15_x11=[
0,0,1.8|
0,1,0.011|
0,2,1.6|
1,0,7.3|
1,1,5.4|
1,2,1.6|
2,0,3.5|
2,1,2.4|
2,2,4.4|
];
constraint_x16_x2=[
0,0,2.4|
0,1,7.2|
0,2,9.2|
1,0,7.7|
1,1,1|
1,2,3.8|
2,0,9.7|
2,1,0.87|
2,2,9.2|
];
constraint_x16_x4=[
0,0,3.1|
0,1,1.1|
0,2,5.6|
1,0,0.91|
1,1,4.4|
1,2,4.8|
2,0,0.65|
2,1,2.6|
2,2,9.6|
];
constraint_x16_x6=[
0,0,7.7|
0,1,6.5|
0,2,7.4|
1,0,7.6|
1,1,4.9|
1,2,1.9|
2,0,7.6|
2,1,9.3|
2,2,0.36|
];
constraint_x16_x7=[
0,0,7.7|
0,1,7.6|
0,2,2.8|
1,0,6.4|
1,1,0.71|
1,2,6.8|
2,0,0.99|
2,1,7.7|
2,2,2.3|
];
constraint_x16_x8=[
0,0,9|
0,1,2|
0,2,0.35|
1,0,9.2|
1,1,6.7|
1,2,1.3|
2,0,8.5|
2,1,0.93|
2,2,5.1|
];
constraint_x16_x10=[
0,0,8.4|
0,1,3.6|
0,2,8.3|
1,0,9.7|
1,1,5.1|
1,2,8.9|
2,0,4.8|
2,1,6.9|
2,2,8.5|
];
constraint_x16_x11=[
0,0,1.4|
0,1,2.6|
0,2,4|
1,0,5|
1,1,1.9|
1,2,6|
2,0,8|
2,1,2.3|
2,2,6.7|
];
constraint_x16_x14=[
0,0,5.5|
0,1,7.6|
0,2,5.3|
1,0,6.7|
1,1,6.1|
1,2,3.6|
2,0,1.4|
2,1,6.4|
2,2,7.1|
];
constraint_x17_x2=[
0,0,2.4|
0,1,1.2|
0,2,1.7|
1,0,0.22|
1,1,1.8|
1,2,5.1|
2,0,4|
2,1,3.4|
2,2,0.82|
];
constraint_x17_x3=[
0,0,1.9|
0,1,9.7|
0,2,3.7|
1,0,4.7|
1,1,0.17|
1,2,9.5|
2,0,4.5|
2,1,2|
2,2,0.23|
];
constraint_x17_x4=[
0,0,4.9|
0,1,8.7|
0,2,1.2|
1,0,2.9|
1,1,1.6|
1,2,6.8|
2,0,0.33|
2,1,9.3|
2,2,2.7|
];
constraint_x17_x8=[
0,0,6.7|
0,1,7.4|
0,2,9.7|
1,0,0.68|
1,1,6.7|
1,2,6.1|
2,0,2.9|
2,1,8.8|
2,2,7.1|
];
constraint_x17_x9=[
0,0,7.8|
0,1,8.9|
0,2,7.2|
1,0,1.6|
1,1,7.4|
1,2,8.8|
2,0,7.3|
2,1,0.8|
2,2,9.8|
];
constraint_x17_x12=[
0,0,5.9|
0,1,6.8|
0,2,0.77|
1,0,4.4|
1,1,5.8|
1,2,5.3|
2,0,8|
2,1,8.8|
2,2,3.5|
];
constraint_x17_x14=[
0,0,0.17|
0,1,2.9|
0,2,8.1|
1,0,6.2|
1,1,7.5|
1,2,6.6|
2,0,1|
2,1,1.6|
2,2,5.2|
];
constraint_x17_x15=[
0,0,7.4|
0,1,0.64|
0,2,5|
1,0,5.4|
1,1,9.6|
1,2,4.3|
2,0,8.7|
2,1,4.7|
2,2,4.5|
];
constraint_x17_x16=[
0,0,5.4|
0,1,2|
0,2,9.2|
1,0,2.1|
1,1,7.2|
1,2,8.9|
2,0,1.4|
2,1,8.4|
2,2,5.4|
];
constraint_x18_x1=[
0,0,6.6|
0,1,5.7|
0,2,5.7|
1,0,4.8|
1,1,8.5|
1,2,0.67|
2,0,6.6|
2,1,1.1|
2,2,5.9|
];
constraint_x18_x2=[
0,0,2.1|
0,1,7.8|
0,2,0.29|
1,0,9.7|
1,1,4.2|
1,2,2.8|
2,0,4|
2,1,9.2|
2,2,3.1|
];
constraint_x18_x3=[
0,0,8|
0,1,6.7|
0,2,9.2|
1,0,9.1|
1,1,7.3|
1,2,4.5|
2,0,7|
2,1,1.3|
2,2,10|
];
constraint_x18_x5=[
0,0,2.1|
0,1,7.1|
0,2,9.2|
1,0,1.6|
1,1,5.9|
1,2,4.2|
2,0,7.2|
2,1,8.3|
2,2,5.3|
];
constraint_x18_x7=[
0,0,1.5|
0,1,1.5|
0,2,0.28|
1,0,7.1|
1,1,5.8|
1,2,2.1|
2,0,4.8|
2,1,5.1|
2,2,8.3|
];
constraint_x18_x10=[
0,0,3.3|
0,1,1.4|
0,2,5.1|
1,0,7.5|
1,1,4|
1,2,7.9|
2,0,9.2|
2,1,7.7|
2,2,5.7|
];
constraint_x18_x11=[
0,0,3.6|
0,1,9.2|
0,2,4.6|
1,0,7.7|
1,1,5.6|
1,2,6.5|
2,0,7.2|
2,1,9.7|
2,2,6.4|
];
constraint_x18_x13=[
0,0,4|
0,1,6.5|
0,2,8|
1,0,9.5|
1,1,6|
1,2,6|
2,0,7.6|
2,1,8.2|
2,2,1.4|
];
constraint_x18_x14=[
0,0,2.6|
0,1,0.4|
0,2,1.7|
1,0,8.2|
1,1,4.6|
1,2,1.9|
2,0,3.7|
2,1,3.3|
2,2,2.2|
];
constraint_x18_x17=[
0,0,4.2|
0,1,9.8|
0,2,2.8|
1,0,0.33|
1,1,2.1|
1,2,3.6|
2,0,0.94|
2,1,1|
2,2,8.5|
];
constraint_x19_x2=[
0,0,6.4|
0,1,8.1|
0,2,3.5|
1,0,2.4|
1,1,0.23|
1,2,3.3|
2,0,2.6|
2,1,8.2|
2,2,2.1|
];
constraint_x19_x3=[
0,0,3.3|
0,1,4.6|
0,2,3.9|
1,0,3.4|
1,1,6.6|
1,2,1.1|
2,0,4.5|
2,1,5.7|
2,2,0.78|
];
constraint_x19_x5=[
0,0,1.5|
0,1,0.49|
0,2,2.4|
1,0,9.2|
1,1,9|
1,2,0.94|
2,0,8|
2,1,4|
2,2,7.9|
];
constraint_x19_x9=[
0,0,0.89|
0,1,2.2|
0,2,7.8|
1,0,8.4|
1,1,9|
1,2,9.3|
2,0,7.7|
2,1,9.3|
2,2,5.6|
];
constraint_x19_x11=[
0,0,3.6|
0,1,3.3|
0,2,1.3|
1,0,7.8|
1,1,2.8|
1,2,9.3|
2,0,4.8|
2,1,1.6|
2,2,4.3|
];
constraint_x19_x13=[
0,0,2|
0,1,1.5|
0,2,0.38|
1,0,9.8|
1,1,2.8|
1,2,5.8|
2,0,2.3|
2,1,0.47|
2,2,9.2|
];
constraint_x19_x15=[
0,0,3.6|
0,1,2|
0,2,3.8|
1,0,1.2|
1,1,4.2|
1,2,9.9|
2,0,3.9|
2,1,9|
2,2,3.8|
];
constraint_x19_x16=[
0,0,4.5|
0,1,2.9|
0,2,0.41|
1,0,1.1|
1,1,1.4|
1,2,5.1|
2,0,7.2|
2,1,7.1|
2,2,4.3|
];
constraint_x20_x3=[
0,0,5.7|
0,1,5.8|
0,2,2.5|
1,0,4|
1,1,5.9|
1,2,8|
2,0,1.6|
2,1,4.4|
2,2,0.072|
];
constraint_x20_x5=[
0,0,2.2|
0,1,6.4|
0,2,8.6|
1,0,3.5|
1,1,10|
1,2,0.96|
2,0,9.2|
2,1,4.2|
2,2,9.3|
];
constraint_x20_x6=[
0,0,5.7|
0,1,2.2|
0,2,2.1|
1,0,1.6|
1,1,0.31|
1,2,9.1|
2,0,4.7|
2,1,4.4|
2,2,2.8|
];
constraint_x20_x7=[
0,0,6.1|
0,1,8.6|
0,2,5.3|
1,0,0.43|
1,1,2.9|
1,2,7.4|
2,0,1.9|
2,1,3.1|
2,2,7.2|
];
constraint_x20_x8=[
0,0,2.3|
0,1,2.7|
0,2,3.9|
1,0,4.9|
1,1,0.85|
1,2,9|
2,0,2.4|
2,1,5.9|
2,2,6.7|
];
constraint_x20_x10=[
0,0,9.6|
0,1,1.6|
0,2,5.3|
1,0,0.93|
1,1,6.9|
1,2,9.4|
2,0,8.7|
2,1,4.8|
2,2,0.6|
];
constraint_x20_x12=[
0,0,4.8|
0,1,0.18|
0,2,0.1|
1,0,2.5|
1,1,5.8|
1,2,0.77|
2,0,2.5|
2,1,7.2|
2,2,2.8|
];
constraint_x20_x14=[
0,0,8.2|
0,1,5.6|
0,2,7.9|
1,0,7|
1,1,0.072|
1,2,9|
2,0,3.8|
2,1,7.9|
2,2,8.2|
];
constraint_x20_x15=[
0,0,1.7|
0,1,0.5|
0,2,2.6|
1,0,8.7|
1,1,4.6|
1,2,0.69|
2,0,9.1|
2,1,3.6|
2,2,9.9|
];
constraint_x20_x16=[
0,0,5|
0,1,0.054|
0,2,2.1|
1,0,8.7|
1,1,2.7|
1,2,7.8|
2,0,1.3|
2,1,10|
2,2,4|
];
constraint_x20_x17=[
0,0,3.1|
0,1,1.4|
0,2,5.2|
1,0,9.7|
1,1,1.9|
1,2,3.3|
2,0,3.7|
2,1,2.8|
2,2,6.2|
];
constraint_x20_x18=[
0,0,8.4|
0,1,2.1|
0,2,3.5|
1,0,5.7|
1,1,9.5|
1,2,4.4|
2,0,8.1|
2,1,0.086|
2,2,0.9|
];
constraint_x1_y1=[
0,0,6.2|
0,1,5.1|
0,2,1.5|
1,0,1.6|
1,1,2.9|
1,2,8.7|
2,0,0.61|
2,1,5.4|
2,2,4.8|
];
constraint_x2_y2=[
0,0,4.8|
0,1,4|
0,2,7.5|
1,0,3.2|
1,1,6.7|
1,2,6.8|
2,0,5.3|
2,1,1.7|
2,2,4.2|
];
constraint_x3_y3=[
0,0,5.7|
0,1,1.1|
0,2,1.1|
1,0,6.4|
1,1,9|
1,2,6.4|
2,0,6.6|
2,1,9.7|
2,2,8.6|
];
constraint_x4_y4=[
0,0,0.2|
0,1,2.6|
0,2,6.6|
1,0,2.6|
1,1,2|
1,2,7.2|
2,0,5.7|
2,1,8.2|
2,2,1.7|
];
initial_distribution_y1=[0.27,0.26,0.47];
initial_distribution_y2=[0.016,0.51,0.47];
initial_distribution_y3=[0.48,0.17,0.35];
initial_distribution_y4=[0.26,0.43,0.31];
transition_y1=[
0.33,0.26,0.41|
0.24,0.38,0.38|
0.33,0.31,0.36|
];
transition_y2=[
0.33,0.35,0.32|
0.22,0.38,0.4|
0.24,0.62,0.14|
];
transition_y3=[
0.23,0.35,0.42|
0.57,0.079,0.35|
0.013,0.73,0.26|
];
transition_y4=[
0.39,0.5,0.11|
0.31,0.33,0.36|
0.16,0.36,0.48|
];
